20 4
80 67 43 91 52 70 29 81 88 60 71 88 81 43 55 38 43 49 38 10
95 74 80 93 70 29 50 20 36 15 10 53 69 44 23 64 38 24 26 64
93 55 61 43 90 87 24 11 27 61 99 38 97 57 76 41 95 53 60 61
72 69 58 48 60 33 28 90 46 65 35 52 79 84 29 14 64 91 84 68
